c This is QMaxSAT 2017 based on 14.07
c This is Glucose 3.0
c This is MiniSat 2.2.0
c WARNING: for repeatability, setting FPU to use double precision
c card = mrwto, comp = 0, pmodel = 0, narr = 11, mct = 225, verb = 0
cr firstCPXsol 0 0 0
c top = 925144817
c |  Number of variables:    110450                                           |
c |  Number of clauses:      25082758                                         |
c |  Weight of hard clauses: 925144817                                        |
c |  Number of soft clauses: 603680                                           |
c |  Number of unit soft clauses: 0                                           |
c |  Maximum Cardinality (by unit): 11589007276  (0           )               |
c last restart ## conflicts  :  0 855 
o 314578 | cpuTime 2.84947 s
c Sum of weights = 1053546116
c A number of soft clauses remained = 54880
c MRWTO encoding for Pseudo-Boolean Constraints
c sizeMax=65536
c No.0 Divisor=13	generated by pow1
c No.1 Divisor=13	generated by pow1
c No.2 Divisor=13	generated by pow1
c No.3 Divisor=13	generated by pow1
c No.4 Divisor=13	generated by pow1
c p0= 13	p1= 13	p2= 13	p3= 13	p4= 13	
c number of digits = 6
c linkingVar[0].size = 13, linkingVar[1].size = 13, linkingVar[2].size = 13, linkingVar[3].size = 13, linkingVar[4].size = 12, linkingVar[5].size = 1, 
c Pseudo-Boolean Constraints: 2280621 variables and 28200681 clauses
c Sum of weights = 1053546116
c A number of soft clauses remained = 54880
c MRWTO encoding for Pseudo-Boolean Constraints
c sizeMax=65536
c No.0 Divisor=13	generated by pow1
c No.1 Divisor=13	generated by pow1
c No.2 Divisor=13	generated by pow1
c No.3 Divisor=13	generated by pow1
c No.4 Divisor=13	generated by pow1
c p0= 13	p1= 13	p2= 13	p3= 13	p4= 13	
c number of digits = 6
c linkingVar[0].size = 13, linkingVar[1].size = 13, linkingVar[2].size = 13, linkingVar[3].size = 13, linkingVar[4].size = 12, linkingVar[5].size = 1, 
c Pseudo-Boolean Constraints: 2280621 variables and 28200681 clauses
c Sum of weights = 1053546116
c A number of soft clauses remained = 54880
c MRWTO encoding for Pseudo-Boolean Constraints
c sizeMax=65536
c No.0 Divisor=13	generated by pow1
c No.1 Divisor=13	generated by pow1
c No.2 Divisor=13	generated by pow1
c No.3 Divisor=13	generated by pow1
c No.4 Divisor=13	generated by pow1
c p0= 13	p1= 13	p2= 13	p3= 13	p4= 13	
c number of digits = 6
c linkingVar[0].size = 13, linkingVar[1].size = 13, linkingVar[2].size = 13, linkingVar[3].size = 13, linkingVar[4].size = 12, linkingVar[5].size = 1, 
c Pseudo-Boolean Constraints: 2280621 variables and 28200681 clauses
c Sum of weights = 1053546116
c A number of soft clauses remained = 54880
c MRWTO encoding for Pseudo-Boolean Constraints
c sizeMax=65536
c No.0 Divisor=13	generated by pow1
c No.1 Divisor=13	generated by pow1
c No.2 Divisor=13	generated by pow1
c No.3 Divisor=13	generated by pow1
c No.4 Divisor=13	generated by pow1
c p0= 13	p1= 13	p2= 13	p3= 13	p4= 13	
c number of digits = 6
c linkingVar[0].size = 13, linkingVar[1].size = 13, linkingVar[2].size = 13, linkingVar[3].size = 13, linkingVar[4].size = 12, linkingVar[5].size = 1, 
c Pseudo-Boolean Constraints: 2280621 variables and 28200681 clauses
c Sum of weights = 1053546116
c A number of soft clauses remained = 54880
c MRWTO encoding for Pseudo-Boolean Constraints
c sizeMax=65536
c No.0 Divisor=13	generated by pow1
c No.1 Divisor=13	generated by pow1
c No.2 Divisor=13	generated by pow1
c No.3 Divisor=13	generated by pow1
c No.4 Divisor=13	generated by pow1
c p0= 13	p1= 13	p2= 13	p3= 13	p4= 13	
c number of digits = 6
c linkingVar[0].size = 13, linkingVar[1].size = 13, linkingVar[2].size = 13, linkingVar[3].size = 13, linkingVar[4].size = 12, linkingVar[5].size = 1, 
c Pseudo-Boolean Constraints: 2280621 variables and 28200681 clauses
c Sum of weights = 1053546116
c A number of soft clauses remained = 54880
c MRWTO encoding for Pseudo-Boolean Constraints
c sizeMax=65536
c No.0 Divisor=13	generated by pow1
c No.1 Divisor=13	generated by pow1
c No.2 Divisor=13	generated by pow1
c No.3 Divisor=13	generated by pow1
c No.4 Divisor=13	generated by pow1
c p0= 13	p1= 13	p2= 13	p3= 13	p4= 13	
c number of digits = 6
c linkingVar[0].size = 13, linkingVar[1].size = 13, linkingVar[2].size = 13, linkingVar[3].size = 13, linkingVar[4].size = 12, linkingVar[5].size = 1, 
c Pseudo-Boolean Constraints: 2280621 variables and 28200681 clauses
c Sum of weights = 1053546116
c A number of soft clauses remained = 54880
c MRWTO encoding for Pseudo-Boolean Constraints
c sizeMax=65536
c No.0 Divisor=13	generated by pow1
c No.1 Divisor=13	generated by pow1
c No.2 Divisor=13	generated by pow1
c No.3 Divisor=13	generated by pow1
c No.4 Divisor=13	generated by pow1
c p0= 13	p1= 13	p2= 13	p3= 13	p4= 13	
c number of digits = 6
c linkingVar[0].size = 13, linkingVar[1].size = 13, linkingVar[2].size = 13, linkingVar[3].size = 13, linkingVar[4].size = 12, linkingVar[5].size = 1, 
c Pseudo-Boolean Constraints: 2280621 variables and 28200681 clauses
c Sum of weights = 1053546116
c A number of soft clauses remained = 54880
c MRWTO encoding for Pseudo-Boolean Constraints
c sizeMax=65536
c No.0 Divisor=13	generated by pow1
c No.1 Divisor=13	generated by pow1
c No.2 Divisor=13	generated by pow1
c No.3 Divisor=13	generated by pow1
c No.4 Divisor=13	generated by pow1
c p0= 13	p1= 13	p2= 13	p3= 13	p4= 13	
c number of digits = 6
c linkingVar[0].size = 13, linkingVar[1].size = 13, linkingVar[2].size = 13, linkingVar[3].size = 13, linkingVar[4].size = 12, linkingVar[5].size = 1, 
c Pseudo-Boolean Constraints: 2280621 variables and 28200681 clauses
c Sum of weights = 1053546116
c A number of soft clauses remained = 54880
c MRWTO encoding for Pseudo-Boolean Constraints
c sizeMax=65536
c No.0 Divisor=13	generated by pow1
c No.1 Divisor=13	generated by pow1
c No.2 Divisor=13	generated by pow1
c No.3 Divisor=13	generated by pow1
c No.4 Divisor=13	generated by pow1
c p0= 13	p1= 13	p2= 13	p3= 13	p4= 13	
c number of digits = 6
c linkingVar[0].size = 13, linkingVar[1].size = 13, linkingVar[2].size = 13, linkingVar[3].size = 13, linkingVar[4].size = 12, linkingVar[5].size = 1, 
c Pseudo-Boolean Constraints: 2280621 variables and 28200681 clauses
c Sum of weights = 1053546116
c A number of soft clauses remained = 54880
c MRWTO encoding for Pseudo-Boolean Constraints
c sizeMax=65536
c No.0 Divisor=13	generated by pow1
c No.1 Divisor=13	generated by pow1
c No.2 Divisor=13	generated by pow1
c No.3 Divisor=13	generated by pow1
c No.4 Divisor=13	generated by pow1
c p0= 13	p1= 13	p2= 13	p3= 13	p4= 13	
c number of digits = 6
c linkingVar[0].size = 13, linkingVar[1].size = 13, linkingVar[2].size = 13, linkingVar[3].size = 13, linkingVar[4].size = 12, linkingVar[5].size = 1, 
c Pseudo-Boolean Constraints: 2280621 variables and 28200681 clauses
c Sum of weights = 1053546116
c A number of soft clauses remained = 54880
c MRWTO encoding for Pseudo-Boolean Constraints
c sizeMax=65536
c No.0 Divisor=13	generated by pow1
c No.1 Divisor=13	generated by pow1
c No.2 Divisor=13	generated by pow1
c No.3 Divisor=13	generated by pow1
c No.4 Divisor=13	generated by pow1
c p0= 13	p1= 13	p2= 13	p3= 13	p4= 13	
c number of digits = 6
c linkingVar[0].size = 13, linkingVar[1].size = 13, linkingVar[2].size = 13, linkingVar[3].size = 13, linkingVar[4].size = 12, linkingVar[5].size = 1, 
c Pseudo-Boolean Constraints: 2280621 variables and 28200681 clauses
s UNKNOWN
c Search is stopped by a limit (maybe time-limit)
cr positiVarArr: [ | 12(1->2) | 248(1->3) | 484(1->4) | 720(1->5) | 956(1->6) | 1192(1->7) | 1428(1->8) | 1664(1->9) | 1900(1->10) | 2136(1->11) | 2372(1->12) | 2608(2->13) | 2844(3->14) | 3080(4->15) | 3316(5->16) | 3552(6->17) | 3788(7->18) | 4024(8->19) | 4260(9->20) | 4496(10->21) | 4732(11->22) | 4968(12->23) | 5204(13->24) | 5440(14->25) | 5676(15->26) | 5912(16->27) | 6148(17->28) | 6384(18->29) | 6620(19->30) | 6856(20->31) | 7092(21->32) | 7328(22->33) | 7564(23->34) | 7800(24->35) | 8036(25->36) | 8272(26->37) | 8508(27->38) | 8744(28->39) | 8980(29->40) | 9216(30->41) | 9452(31->42) | 9688(32->43) | 9924(33->44) | 10160(34->45) | 10396(35->46) | 10632(36->47) | 10868(37->48) | 11104(38->49) | 11340(39->50) | 11576(40->51) | 11812(41->52) | 12048(42->53) | 12284(43->54) | 12520(44->55) | 12756(45->56) | 12992(46->57) | 13228(47->58) | 13464(48->59) | 13700(49->60) | 13936(50->61) | 14172(51->62) | 14408(52->63) | 14644(53->64) | 14880(54->65) | 15116(55->66) | 15352(56->67) | 15588(57->68) | 15824(58->69) | 16060(59->70) | 16296(60->71) | 16532(61->72) | 16768(62->73) | 17004(63->74) | 17240(64->75) | 17476(65->76) | 17712(66->77) | 17948(67->78) | 18184(68->79) | 18420(69->80) | 18656(70->81) | 18892(71->82) | 19128(72->83) | 19364(73->84) | 19600(74->85) | 19836(75->86) | 20072(76->87) | 20308(77->88) | 20544(78->89) | 20780(79->90) | 21016(80->91) | 21252(81->92) | 21488(82->93) | 21724(83->94) | 21960(84->95) | 22196(85->96) | 22432(86->97) | 22668(87->98) | 22904(88->99) | 23140(89->100) | 23376(90->101) | 23612(91->102) | 23848(92->103) | 24084(93->104) | 24320(94->105) | 24556(95->106) | 24792(96->107) | 25028(97->108) | 25264(98->109) | 25500(99->110) | 25736(100->111) | 25972(101->112) | 26208(102->113) | 26444(103->114) | 26680(104->115) | 26916(105->116) | 27152(106->117) | 27388(107->118) | 27624(108->119) | 27860(109->120) | 28096(110->121) | 28332(111->122) | 28568(112->123) | 28804(113->124) | 29040(114->125) | 29276(115->126) | 29512(116->127) | 29748(117->128) | 29984(118->129) | 30220(119->130) | 30456(120->131) | 30692(121->132) | 30928(122->133) | 31164(123->134) | 31400(124->135) | 31636(125->136) | 31872(126->137) | 32108(127->138) | 32344(128->139) | 32580(129->140) | 32816(130->141) | 33052(131->142) | 33288(132->143) | 33524(133->144) | 33760(134->145) | 33996(135->146) | 34232(136->147) | 34468(137->148) | 34704(138->149) | 34940(139->150) | 35176(140->151) | 35412(141->152) | 35648(142->153) | 35884(143->154) | 36120(144->155) | 36356(145->156) | 36592(146->157) | 36828(147->158) | 37064(148->159) | 37300(149->160) | 37536(150->161) | 37772(151->162) | 38008(152->163) | 38244(153->164) | 38480(154->165) | 38716(155->166) | 38952(156->167) | 39188(157->168) | 39424(158->169) | 39660(159->170) | 39896(160->171) | 40132(161->172) | 40368(162->173) | 40604(163->174) | 40840(164->175) | 41076(165->176) | 41312(166->177) | 41548(167->178) | 41784(168->179) | 42020(169->180) | 42256(170->181) | 42492(171->182) | 42728(172->183) | 42964(173->184) | 43200(174->185) | 43436(175->186) | 43672(176->187) | 43908(177->188) | 44144(178->189) | 44380(179->190) | 44616(180->191) | 44852(181->192) | 45088(182->193) | 45324(183->194) | 45560(184->195) | 45796(185->196) | 46032(186->197) | 46268(187->198) | 46504(188->199) | 46740(189->200) | 46976(190->201) | 47212(191->202) | 47448(192->203) | 47684(193->204) | 47920(194->205) | 48156(195->206) | 48392(196->207) | 48628(197->208) | 48864(198->209) | 49100(199->210) | 49336(200->211) | 49572(201->212) | 49808(202->213) | 50044(203->214) | 50280(204->215) | 50516(205->216) | 50752(206->217) | 50988(207->218) | 51224(208->219) | 51460(209->220) | 51696(210->221) | 51932(211->222) | 52168(212->223) | 52404(213->224) | 52640(214->225) | 52651(215->1) | 52885(216->1) | 53119(217->1) | 53353(218->1) | 53587(219->1) | 53821(220->1) | 54055(221->1) | 54289(222->1) | 54523(223->1) | 54757(224->1) | 54991(225->1) | ]
cr the 1-th chain: [ 1->2->13->24->35->46->57->68->79->90->101->112->123->134->145->156->167->178->189->200->211->222->1 ] (#non-depot=21) {#cumul.=22}
cr the 2-th chain: [ 1->3->14->25->36->47->58->69->80->91->102->113->124->135->146->157->168->179->190->201->212->223->1 ] (#non-depot=21) {#cumul.=43}
cr the 3-th chain: [ 1->4->15->26->37->48->59->70->81->92->103->114->125->136->147->158->169->180->191->202->213->224->1 ] (#non-depot=21) {#cumul.=64}
cr the 4-th chain: [ 1->5->16->27->38->49->60->71->82->93->104->115->126->137->148->159->170->181->192->203->214->225->1 ] (#non-depot=21) {#cumul.=85}
cr the 5-th chain: [ 1->6->17->28->39->50->61->72->83->94->105->116->127->138->149->160->171->182->193->204->215->1 ] (#non-depot=20) {#cumul.=105}
cr the 6-th chain: [ 1->7->18->29->40->51->62->73->84->95->106->117->128->139->150->161->172->183->194->205->216->1 ] (#non-depot=20) {#cumul.=125}
cr the 7-th chain: [ 1->8->19->30->41->52->63->74->85->96->107->118->129->140->151->162->173->184->195->206->217->1 ] (#non-depot=20) {#cumul.=145}
cr the 8-th chain: [ 1->9->20->31->42->53->64->75->86->97->108->119->130->141->152->163->174->185->196->207->218->1 ] (#non-depot=20) {#cumul.=165}
cr the 9-th chain: [ 1->10->21->32->43->54->65->76->87->98->109->120->131->142->153->164->175->186->197->208->219->1 ] (#non-depot=20) {#cumul.=185}
cr the 10-th chain: [ 1->11->22->33->44->55->66->77->88->99->110->121->132->143->154->165->176->187->198->209->220->1 ] (#non-depot=20) {#cumul.=205}
cr the 11-th chain: [ 1->12->23->34->45->56->67->78->89->100->111->122->133->144->155->166->177->188->199->210->221->1 ] (#non-depot=20) {#cumul.=225}
c Latest Answer = 0 by 1 loops
c restarts              : 526
c conflicts             : 102368         (28 /sec)
c decisions             : 204958683      (0.00 % random) (56985 /sec)
c propagations          : 19943230103    (5544804 /sec)
c conflict literals     : 6996022        (5.71 % deleted)
c Memory used           : 22057.00 MB
c CPU time              : 3596.74 s
